0 0 0 0
0 1 0 3
0 2 0 0
0 3 0 0
0 4 0 4
0 5 0 4
0 6 0 3
0 7 0 3
0 8 0 12
0 9 0 10
0 10 0 11
0 11 0 9
0 12 1 5
0 13 0 8
0 14 1 5
0 15 1 10
0 16 2 10
0 17 0 13
0 18 0 18
0 19 0 18
0 20 0 21
0 21 1 16
0 22 0 20
0 23 1 19
0 24 2 13
0 25 2 13
0 26 0 19
0 27 0 21
0 28 0 22
0 29 0 23
0 30 0 22
0 31 0 24
